8
0	224	371	636	410	1058	1337	1773
224	0	441	582	514	990	1270	1706
371	441	0	357	527	853	1133	1569
636	582	357	0	869	416	695	1131
410	514	527	869	0	1357	1636	2072
1058	990	853	416	1357	0	306	742
1337	1270	1133	695	1636	306	0	462
1773	1706	1569	1131	2072	742	462	0